c SAT Generator for power-law distributed variable frequencies
c -g u -v 20 -c 91 -k 3 -p 2.750000 -b 3.200000 -f /home/schmidt/Devel/ni-kop-sat/data/ensemble/ruf20-91/ruf20-91-883 -u 1 -U 1 -s 671693959
p cnf 20 91
-2 -5 -16 0
-11 -13 19 0
5 9 15 0
-3 -8 -14 0
-9 14 15 0
-3 -10 -19 0
-4 -11 -16 0
-3 12 -19 0
7 -8 12 0
2 8 16 0
-2 14 17 0
-3 -9 18 0
-13 18 -19 0
-11 15 16 0
-7 10 19 0
-8 -13 19 0
13 14 16 0
4 8 20 0
2 10 -13 0
2 14 -20 0
-2 8 15 0
-10 18 -19 0
-10 -15 19 0
3 10 20 0
3 5 -17 0
2 -7 -16 0
4 -8 17 0
2 12 -17 0
2 -4 7 0
4 -8 -16 0
-5 16 18 0
-1 12 -13 0
-5 -10 -14 0
-9 10 -13 0
1 -2 -6 0
7 9 -20 0
1 -7 11 0
-1 -4 12 0
11 15 -16 0
-1 7 15 0
4 -9 -10 0
-9 -13 14 0
-11 -15 -20 0
-14 -17 18 0
-10 -12 -17 0
-6 -10 15 0
-6 -12 18 0
-1 -18 20 0
-4 -14 -19 0
6 10 -19 0
-8 -9 18 0
-7 8 -16 0
3 -5 -20 0
-3 -10 14 0
-6 -8 19 0
-9 -10 -16 0
6 -7 -15 0
1 6 -8 0
8 -13 17 0
10 12 -13 0
2 -4 9 0
4 -7 -8 0
-8 10 -11 0
1 5 -10 0
4 -10 -12 0
-8 -14 -19 0
2 -6 -19 0
-1 14 18 0
12 14 -16 0
-3 -19 -20 0
2 18 19 0
-1 5 -12 0
-14 -17 -18 0
7 -16 20 0
3 -7 10 0
2 12 18 0
10 -13 -16 0
10 -14 18 0
3 -15 20 0
2 -8 -9 0
10 -13 -14 0
7 -11 -17 0
1 -5 6 0
-5 9 14 0
3 -7 -12 0
-9 10 20 0
10 14 18 0
14 16 18 0
4 -9 -18 0
-1 10 -15 0
-8 14 -18 0
